data_generator/5.atsp
NAME: 5
TYPE: ATSP
DIMENSION: 5
EDGE_WEIGHT_TYPE: EXPLICIT
EDGE_WEIGHT_FORMAT: FULL_MATRIX
EDGE_WEIGHT_SECTION
 999999 31 25 65 61
 90 999999 40 35 7
 78 23 999999 23 96
 77 53 77 999999 6
 81 19 31 17 999999
EOF
