data_generator/5.opt.tour
NAME : 5.opt.tour
TYPE : TOUR
DIMENSION : 5
COMMENT : OPTIMAL_COST = 149
TOUR_SECTION
1
3
2
5
4
-1
EOF
